solution status: optimal solution found
objective value:                                    0
$_112_y                                            23 	(obj:0)
$_112_z                                            21 	(obj:0)
$_96_y                                             22 	(obj:0)
$_96_z                                             18 	(obj:0)
$_159_y                                            21 	(obj:0)
$_159_z                                            25 	(obj:0)
$_200_y                                            22 	(obj:0)
$_200_z                                            23 	(obj:0)
$_133_y                                            24 	(obj:0)
$_133_z                                            21 	(obj:0)
$_94_y                                             24 	(obj:0)
$_94_z                                             17 	(obj:0)
$_119_y                                            22 	(obj:0)
$_119_z                                            25 	(obj:0)
$_255_y                                            23 	(obj:0)
$_255_z                                            18 	(obj:0)
$_126_y                                            23 	(obj:0)
$_126_z                                            23 	(obj:0)
$_279_y                                            24 	(obj:0)
$_279_z                                            18 	(obj:0)
$_173_y                                            24 	(obj:0)
$_173_z                                            23 	(obj:0)
$_213_y                                            22 	(obj:0)
$_213_z                                            22 	(obj:0)
$_254_y                                            25 	(obj:0)
$_254_z                                            19 	(obj:0)
$_98_y                                             24 	(obj:0)
$_98_z                                             16 	(obj:0)
$_67_y                                             25 	(obj:0)
$_67_z                                             18 	(obj:0)
$_211_y                                            23 	(obj:0)
$_211_z                                            22 	(obj:0)
$_99_y                                             25 	(obj:0)
$_99_z                                             23 	(obj:0)
$_252_y                                            25 	(obj:0)
$_252_z                                            20 	(obj:0)
$_214_y                                            24 	(obj:0)
$_214_z                                            22 	(obj:0)
$_241_y                                            25 	(obj:0)
$_241_z                                            21 	(obj:0)
$_170_y                                            25 	(obj:0)
$_170_z                                            24 	(obj:0)
$_95_y                                             23 	(obj:0)
$_95_z                                             25 	(obj:0)
$_97_y                                             24 	(obj:0)
$_97_z                                             25 	(obj:0)
$_172_y                                            25 	(obj:0)
$_172_z                                            25 	(obj:0)
$_45_y                                             25 	(obj:0)
$_45_z                                             22 	(obj:0)
